Maximize
F - f1 - f2

Subject to
F - 6y56 - 6y162 - 4y118 - 4y36 - 8y41 - 6y43 - 2y157 - 4y151 - 2y185 - 4y28 - 4y87 - 6y182 - 8y32 - 4y8 - 6y15 - 8y44 - 4y176 = 0
f1 - 0.007527s56 - 0.007527s162 - 0.007527s118 - 0.007527s36 - 0.007527s41 - 0.007527s43 - 0.007527s157 - 0.007527s151 - 0.007527s185 - 0.007527s28 - 0.007527s87 - 0.007527s182 - 0.007527s32 - 0.007527s8 - 0.007527s15 - 0.007527s44 - 0.007527s176  = 0
f2 - 2.79y56 - 2.90y162 - 2.65y118 - 2.77y36 - 2.45y41 - 2.54y43 - 2.66y157 - 2.76y151 - 2.79y185 - 1.18y28 - 0.92y87 - 1.01y182 - 0.91y32 - 0.05y8 - 0.17y15 - 0.10y44 - 0.01y176 = 0

x88x162x1 + x88x36x1 + x88x41x1 + x88x43x1 + x88x185x1 + x88x32x1 
<= 2
x34x56x1 + x34x162x1 + x34x36x1 + x34x41x1 + x34x43x1 + x34x185x1 + x34x32x1 
<= 1
x26x185x1 + x26x32x1 
<= 1
x24x32x1 
<= 1
x135x32x1 
<= 1
x148x43x2 + x148x87x2 + x148x8x2 + x148x15x2 + x148x44x2 + x148x176x2 
<= 1
x34x162x2 + x34x118x2 + x34x41x2 + x34x43x2 + x34x87x2 + x34x8x2 + x34x15x2 + x34x44x2 + x34x176x2 
<= 1
x26x87x2 + x26x8x2 + x26x15x2 + x26x44x2 + x26x176x2 
<= 1
x24x87x2 + x24x8x2 + x24x15x2 + x24x44x2 + x24x176x2 
<= 1
x135x87x2 + x135x8x2 + x135x15x2 + x135x44x2 + x135x176x2 
<= 1
x196x162x2 + x196x118x2 + x196x41x2 + x196x43x2 + x196x87x2 + x196x8x2 + x196x15x2 + x196x44x2 + x196x176x2 
<= 1
x148x157x3 + x148x151x3 + x148x185x3 + x148x28x3 + x148x182x3 + x148x32x3 + x148x15x3 
<= 1
x121x28x3 + x121x182x3 + x121x32x3 + x121x15x3 
<= 2
x196x157x3 + x196x151x3 + x196x185x3 + x196x28x3 + x196x182x3 + x196x32x3 + x196x15x3 
<= 1
x75x157x3 + x75x151x3 + x75x185x3 + x75x28x3 + x75x182x3 + x75x32x3 + x75x15x3 
<= 2

x34x56x1 
- x56x0x1
- x56x162x1 - x56x36x1 - x56x41x1 - x56x43x1 - x56x185x1 - x56x32x1 
= 0



x88x162x1 + x34x162x1 + x56x162x1 
- x162x0x1
- x162x36x1 - x162x185x1 - x162x32x1 
= 0
x34x162x2 + x196x162x2 
- x162x0x2
- x162x87x2 - x162x8x2 - x162x15x2 - x162x44x2 - x162x176x2 
= 0



x34x118x2 + x196x118x2 
- x118x0x2
- x118x43x2 - x118x87x2 - x118x8x2 - x118x15x2 - x118x44x2 - x118x176x2 
= 0


x88x36x1 + x34x36x1 + x56x36x1 + x162x36x1 
- x36x0x1
- x36x185x1 - x36x32x1 
= 0



x88x41x1 + x34x41x1 + x56x41x1 
- x41x0x1
- x41x185x1 - x41x32x1 
= 0
x34x41x2 + x196x41x2 
- x41x0x2
- x41x87x2 - x41x8x2 - x41x15x2 - x41x44x2 - x41x176x2 
= 0


x88x43x1 + x34x43x1 + x56x43x1 
- x43x0x1
- x43x185x1 - x43x32x1 
= 0
x148x43x2 + x34x43x2 + x196x43x2 + x118x43x2 
- x43x0x2
- x43x87x2 - x43x8x2 - x43x15x2 - x43x44x2 - x43x176x2 
= 0




x148x157x3 + x196x157x3 + x75x157x3 
- x157x0x3
- x157x185x3 - x157x28x3 - x157x182x3 - x157x32x3 - x157x15x3 
= 0



x148x151x3 + x196x151x3 + x75x151x3 
- x151x0x3
- x151x185x3 - x151x28x3 - x151x182x3 - x151x32x3 - x151x15x3 
= 0

x88x185x1 + x34x185x1 + x26x185x1 + x56x185x1 + x162x185x1 + x36x185x1 + x41x185x1 + x43x185x1 
- x185x0x1
- x185x32x1 
= 0

x148x185x3 + x196x185x3 + x75x185x3 + x157x185x3 + x151x185x3 
- x185x0x3
- x185x28x3 - x185x182x3 - x185x32x3 - x185x15x3 
= 0



x148x28x3 + x121x28x3 + x196x28x3 + x75x28x3 + x157x28x3 + x151x28x3 + x185x28x3 
- x28x0x3
- x28x182x3 - x28x32x3 - x28x15x3 
= 0


x148x87x2 + x34x87x2 + x26x87x2 + x24x87x2 + x135x87x2 + x196x87x2 + x162x87x2 + x118x87x2 + x41x87x2 + x43x87x2 
- x87x0x2
- x87x8x2 - x87x15x2 - x87x44x2 - x87x176x2 
= 0




x148x182x3 + x121x182x3 + x196x182x3 + x75x182x3 + x157x182x3 + x151x182x3 + x185x182x3 + x28x182x3 
- x182x0x3
- x182x15x3 
= 0

x88x32x1 + x34x32x1 + x26x32x1 + x24x32x1 + x135x32x1 + x56x32x1 + x162x32x1 + x36x32x1 + x41x32x1 + x43x32x1 + x185x32x1 
- x32x0x1

= 0

x148x32x3 + x121x32x3 + x196x32x3 + x75x32x3 + x157x32x3 + x151x32x3 + x185x32x3 + x28x32x3 
- x32x0x3
- x32x15x3 
= 0


x148x8x2 + x34x8x2 + x26x8x2 + x24x8x2 + x135x8x2 + x196x8x2 + x162x8x2 + x118x8x2 + x41x8x2 + x43x8x2 + x87x8x2 
- x8x0x2

= 0



x148x15x2 + x34x15x2 + x26x15x2 + x24x15x2 + x135x15x2 + x196x15x2 + x162x15x2 + x118x15x2 + x41x15x2 + x43x15x2 + x87x15x2 
- x15x0x2

= 0
x148x15x3 + x121x15x3 + x196x15x3 + x75x15x3 + x157x15x3 + x151x15x3 + x185x15x3 + x28x15x3 + x182x15x3 + x32x15x3 
- x15x0x3

= 0


x148x44x2 + x34x44x2 + x26x44x2 + x24x44x2 + x135x44x2 + x196x44x2 + x162x44x2 + x118x44x2 + x41x44x2 + x43x44x2 + x87x44x2 
- x44x0x2

= 0



x148x176x2 + x34x176x2 + x26x176x2 + x24x176x2 + x135x176x2 + x196x176x2 + x162x176x2 + x118x176x2 + x41x176x2 + x43x176x2 + x87x176x2 
- x176x0x2

= 0


2y56 - x34x56x1 = 0
1y162 - x88x162x1 - x34x162x1 - x56x162x1 = 0
1y162 - x34x162x2 - x196x162x2 = 0
2y118 - x34x118x2 - x196x118x2 = 0
2y36 - x88x36x1 - x34x36x1 - x56x36x1 - x162x36x1 = 0
1y41 - x88x41x1 - x34x41x1 - x56x41x1 = 0
1y41 - x34x41x2 - x196x41x2 = 0
1y43 - x88x43x1 - x34x43x1 - x56x43x1 = 0
1y43 - x148x43x2 - x34x43x2 - x196x43x2 - x118x43x2 = 0
2y157 - x148x157x3 - x196x157x3 - x75x157x3 = 0
2y151 - x148x151x3 - x196x151x3 - x75x151x3 = 0
1y185 - x88x185x1 - x34x185x1 - x26x185x1 - x56x185x1 - x162x185x1 - x36x185x1 - x41x185x1 - x43x185x1 = 0
1y185 - x148x185x3 - x196x185x3 - x75x185x3 - x157x185x3 - x151x185x3 = 0
2y28 - x148x28x3 - x121x28x3 - x196x28x3 - x75x28x3 - x157x28x3 - x151x28x3 - x185x28x3 = 0
2y87 - x148x87x2 - x34x87x2 - x26x87x2 - x24x87x2 - x135x87x2 - x196x87x2 - x162x87x2 - x118x87x2 - x41x87x2 - x43x87x2 = 0
2y182 - x148x182x3 - x121x182x3 - x196x182x3 - x75x182x3 - x157x182x3 - x151x182x3 - x185x182x3 - x28x182x3 = 0
1y32 - x88x32x1 - x34x32x1 - x26x32x1 - x24x32x1 - x135x32x1 - x56x32x1 - x162x32x1 - x36x32x1 - x41x32x1 - x43x32x1 - x185x32x1 = 0
1y32 - x148x32x3 - x121x32x3 - x196x32x3 - x75x32x3 - x157x32x3 - x151x32x3 - x185x32x3 - x28x32x3 = 0
2y8 - x148x8x2 - x34x8x2 - x26x8x2 - x24x8x2 - x135x8x2 - x196x8x2 - x162x8x2 - x118x8x2 - x41x8x2 - x43x8x2 - x87x8x2 = 0
1y15 - x148x15x2 - x34x15x2 - x26x15x2 - x24x15x2 - x135x15x2 - x196x15x2 - x162x15x2 - x118x15x2 - x41x15x2 - x43x15x2 - x87x15x2 = 0
1y15 - x148x15x3 - x121x15x3 - x196x15x3 - x75x15x3 - x157x15x3 - x151x15x3 - x185x15x3 - x28x15x3 - x182x15x3 - x32x15x3 = 0
2y44 - x148x44x2 - x34x44x2 - x26x44x2 - x24x44x2 - x135x44x2 - x196x44x2 - x162x44x2 - x118x44x2 - x41x44x2 - x43x44x2 - x87x44x2 = 0
2y176 - x148x176x2 - x34x176x2 - x26x176x2 - x24x176x2 - x135x176x2 - x196x176x2 - x162x176x2 - x118x176x2 - x41x176x2 - x43x176x2 - x87x176x2 = 0

s88 - s162 + 7.069048z88z162z1 <= 5.46
s88 - s36 + 7.067959z88z36z1 <= 5.46
s88 - s41 + 7.010999z88z41z1 <= 5.46
s88 - s43 + 7.036069z88z43z1 <= 5.46
s88 - s185 + 7.097332z88z185z1 <= 5.46
s88 - s32 + 7.158630z88z32z1 <= 5.46
s148 - s43 + 7.154305z148z43z2 <= 5.74
s148 - s157 + 7.148512z148z157z3 <= 5.74
s148 - s151 + 7.143685z148z151z3 <= 5.74
s148 - s185 + 7.153067z148z185z3 <= 5.74
s148 - s28 + 7.427671z148z28z3 <= 5.74
s148 - s87 + 7.443539z148z87z2 <= 5.74
s148 - s182 + 7.454586z148z182z3 <= 5.74
s148 - s32 + 7.455830z148z32z3 <= 5.74
s148 - s8 + 7.721063z148z8z2 <= 5.74
s148 - s15 + 7.715127z148z15z2 <= 5.74
s148 - s15 + 7.715127z148z15z3 <= 5.74
s148 - s44 + 7.480041z148z44z2 <= 5.74
s148 - s176 + 7.506478z148z176z2 <= 5.74
s34 - s56 + 6.742613z34z56z1 <= 5.36
s34 - s162 + 6.789512z34z162z1 <= 5.36
s34 - s162 + 6.789512z34z162z2 <= 5.36
s34 - s118 + 6.764809z34z118z2 <= 5.36
s34 - s36 + 6.788256z34z36z1 <= 5.36
s34 - s41 + 6.731950z34z41z1 <= 5.36
s34 - s41 + 6.731950z34z41z2 <= 5.36
s34 - s43 + 6.756739z34z43z1 <= 5.36
s34 - s43 + 6.756739z34z43z2 <= 5.36
s34 - s185 + 6.817636z34z185z1 <= 5.36
s34 - s87 + 6.889696z34z87z2 <= 5.36
s34 - s32 + 6.908313z34z32z1 <= 5.36
s34 - s8 + 7.166612z34z8z2 <= 5.36
s34 - s15 + 7.173808z34z15z2 <= 5.36
s34 - s44 + 6.787994z34z44z2 <= 5.36
s34 - s176 + 6.823481z34z176z2 <= 5.36
s26 - s185 + 7.244709z26z185z1 <= 5.80
s26 - s87 + 7.306135z26z87z2 <= 5.80
s26 - s32 + 7.324815z26z32z1 <= 5.80
s26 - s8 + 7.581600z26z8z2 <= 5.80
s26 - s15 + 7.589125z26z15z2 <= 5.80
s26 - s44 + 7.201056z26z44z2 <= 5.80
s26 - s176 + 7.236598z26z176z2 <= 5.80
s24 - s87 + 7.469280z24z87z2 <= 5.97
s24 - s32 + 7.487974z24z32z1 <= 5.97
s24 - s8 + 7.744503z24z8z2 <= 5.97
s24 - s15 + 7.752057z24z15z2 <= 5.97
s24 - s44 + 7.364355z24z44z2 <= 5.97
s24 - s176 + 7.399855z24z176z2 <= 5.97
s121 - s28 + 7.508027z121z28z3 <= 5.95
s121 - s182 + 7.517922z121z182z3 <= 5.95
s121 - s32 + 7.500208z121z32z3 <= 5.95
s121 - s15 + 7.760615z121z15z3 <= 5.95
s135 - s87 + 7.328645z135z87z2 <= 5.87
s135 - s32 + 7.347075z135z32z1 <= 5.87
s135 - s8 + 7.569269z135z8z2 <= 5.87
s135 - s15 + 7.582211z135z15z2 <= 5.87
s135 - s44 + 7.160669z135z44z2 <= 5.87
s135 - s176 + 7.195508z135z176z2 <= 5.87
s196 - s162 + 6.379170z196z162z2 <= 4.85
s196 - s118 + 6.396477z196z118z2 <= 4.85
s196 - s41 + 6.402299z196z41z2 <= 4.85
s196 - s43 + 6.406786z196z43z2 <= 4.85
s196 - s157 + 6.406028z196z157z3 <= 4.85
s196 - s151 + 6.404747z196z151z3 <= 4.85
s196 - s185 + 6.416947z196z185z3 <= 4.85
s196 - s28 + 6.675885z196z28z3 <= 4.85
s196 - s87 + 6.684449z196z87z2 <= 4.85
s196 - s182 + 6.700901z196z182z3 <= 4.85
s196 - s32 + 6.698600z196z32z3 <= 4.85
s196 - s8 + 6.969592z196z8z2 <= 4.85
s196 - s15 + 6.966153z196z15z2 <= 4.85
s196 - s15 + 6.966153z196z15z3 <= 4.85
s196 - s44 + 6.686576z196z44z2 <= 4.85
s196 - s176 + 6.716810z196z176z2 <= 4.85
s75 - s157 + 6.432566z75z157z3 <= 4.87
s75 - s151 + 6.430679z75z151z3 <= 4.87
s75 - s185 + 6.442372z75z185z3 <= 4.87
s75 - s28 + 6.704198z75z28z3 <= 4.87
s75 - s182 + 6.729491z75z182z3 <= 4.87
s75 - s32 + 6.727635z75z32z3 <= 4.87
s75 - s15 + 6.994279z75z15z3 <= 4.87
s56 - s162 + 8.057140z56z162z1 <= 7.01
s56 - s36 + 8.058074z56z36z1 <= 7.01
s56 - s41 + 8.063748z56z41z1 <= 7.01
s56 - s43 + 8.056667z56z43z1 <= 7.01
s56 - s185 + 8.087747z56z185z1 <= 7.01
s56 - s32 + 8.359794z56z32z1 <= 7.01
s162 - s36 + 8.121081z162z36z1 <= 7.10
s162 - s185 + 8.138873z162z185z1 <= 7.10
s162 - s87 + 8.443641z162z87z2 <= 7.10
s162 - s32 + 8.452578z162z32z1 <= 7.10
s162 - s8 + 8.707582z162z8z2 <= 7.10
s162 - s15 + 8.700037z162z15z2 <= 7.10
s162 - s44 + 8.547859z162z44z2 <= 7.10
s162 - s176 + 8.562841z162z176z2 <= 7.10
s118 - s43 + 8.148856z118z43z2 <= 7.13
s118 - s87 + 8.438833z118z87z2 <= 7.13
s118 - s8 + 8.710000z118z8z2 <= 7.13
s118 - s15 + 8.703953z118z15z2 <= 7.13
s118 - s44 + 8.535408z118z44z2 <= 7.13
s118 - s176 + 8.550846z118z176z2 <= 7.13
s36 - s185 + 8.179814z36z185z1 <= 7.15
s36 - s32 + 8.481528z36z32z1 <= 7.15
s41 - s185 + 8.243571z41z185z1 <= 7.15
s41 - s87 + 8.438599z41z87z2 <= 7.15
s41 - s32 + 8.450666z41z32z1 <= 7.15
s41 - s8 + 8.718077z41z8z2 <= 7.15
s41 - s15 + 8.713955z41z15z2 <= 7.15
s41 - s44 + 8.518179z41z44z2 <= 7.15
s41 - s176 + 8.535343z41z176z2 <= 7.15
s43 - s185 + 8.226999z43z185z1 <= 7.16
s43 - s87 + 8.452878z43z87z2 <= 7.16
s43 - s32 + 8.463608z43z32z1 <= 7.16
s43 - s8 + 8.726824z43z8z2 <= 7.16
s43 - s15 + 8.721427z43z15z2 <= 7.16
s43 - s44 + 8.546552z43z44z2 <= 7.16
s43 - s176 + 8.562050z43z176z2 <= 7.16
s157 - s185 + 8.210000z157z185z3 <= 7.17
s157 - s28 + 8.451977z157z28z3 <= 7.17
s157 - s182 + 8.480197z157z182z3 <= 7.17
s157 - s32 + 8.485313z157z32z3 <= 7.17
s157 - s15 + 8.736824z157z15z3 <= 7.17
s151 - s185 + 8.211082z151z185z3 <= 7.19
s151 - s28 + 8.481586z151z28z3 <= 7.19
s151 - s182 + 8.510347z151z182z3 <= 7.19
s151 - s32 + 8.516939z151z32z3 <= 7.19
s151 - s15 + 8.763372z151z15z3 <= 7.19
s185 - s28 + 8.549444z185z28z3 <= 7.26
s185 - s182 + 8.578678z185z182z3 <= 7.26
s185 - s32 + 8.586939z185z32z1 <= 7.26
s185 - s32 + 8.586939z185z32z3 <= 7.26
s185 - s15 + 8.827294z185z15z3 <= 7.26
s28 - s182 + 9.079815z28z182z3 <= 8.05
s28 - s32 + 9.098074z28z32z3 <= 8.05
s28 - s15 + 9.340441z28z15z3 <= 8.05
s87 - s8 + 9.399444z87z8z2 <= 8.11
s87 - s15 + 9.401052z87z15z2 <= 8.11
s87 - s44 + 9.323750z87z44z2 <= 8.11
s87 - s176 + 9.310997z87z176z2 <= 8.11
s182 - s15 + 9.396833z182z15z3 <= 8.13
s32 - s15 + 9.414064z32z15z3 <= 8.14

x88x162x1 - 1z88z162z1 <= 0
x88x36x1 - 2z88z36z1 <= 0
x88x41x1 - 1z88z41z1 <= 0
x88x43x1 - 1z88z43z1 <= 0
x88x185x1 - 1z88z185z1 <= 0
x88x32x1 - 1z88z32z1 <= 0
x148x43x2 - 1z148z43z2 <= 0
x148x157x3 - 2z148z157z3 <= 0
x148x151x3 - 2z148z151z3 <= 0
x148x185x3 - 1z148z185z3 <= 0
x148x28x3 - 2z148z28z3 <= 0
x148x87x2 - 2z148z87z2 <= 0
x148x182x3 - 2z148z182z3 <= 0
x148x32x3 - 1z148z32z3 <= 0
x148x8x2 - 2z148z8z2 <= 0
x148x15x2 - 1z148z15z2 <= 0
x148x15x3 - 1z148z15z3 <= 0
x148x44x2 - 2z148z44z2 <= 0
x148x176x2 - 2z148z176z2 <= 0
x34x56x1 - 2z34z56z1 <= 0
x34x162x1 - 1z34z162z1 <= 0
x34x162x2 - 1z34z162z2 <= 0
x34x118x2 - 2z34z118z2 <= 0
x34x36x1 - 2z34z36z1 <= 0
x34x41x1 - 1z34z41z1 <= 0
x34x41x2 - 1z34z41z2 <= 0
x34x43x1 - 1z34z43z1 <= 0
x34x43x2 - 1z34z43z2 <= 0
x34x185x1 - 1z34z185z1 <= 0
x34x87x2 - 2z34z87z2 <= 0
x34x32x1 - 1z34z32z1 <= 0
x34x8x2 - 2z34z8z2 <= 0
x34x15x2 - 1z34z15z2 <= 0
x34x44x2 - 2z34z44z2 <= 0
x34x176x2 - 2z34z176z2 <= 0
x26x185x1 - 1z26z185z1 <= 0
x26x87x2 - 2z26z87z2 <= 0
x26x32x1 - 1z26z32z1 <= 0
x26x8x2 - 2z26z8z2 <= 0
x26x15x2 - 1z26z15z2 <= 0
x26x44x2 - 2z26z44z2 <= 0
x26x176x2 - 2z26z176z2 <= 0
x24x87x2 - 2z24z87z2 <= 0
x24x32x1 - 1z24z32z1 <= 0
x24x8x2 - 2z24z8z2 <= 0
x24x15x2 - 1z24z15z2 <= 0
x24x44x2 - 2z24z44z2 <= 0
x24x176x2 - 2z24z176z2 <= 0
x121x28x3 - 2z121z28z3 <= 0
x121x182x3 - 2z121z182z3 <= 0
x121x32x3 - 1z121z32z3 <= 0
x121x15x3 - 1z121z15z3 <= 0
x135x87x2 - 2z135z87z2 <= 0
x135x32x1 - 1z135z32z1 <= 0
x135x8x2 - 2z135z8z2 <= 0
x135x15x2 - 1z135z15z2 <= 0
x135x44x2 - 2z135z44z2 <= 0
x135x176x2 - 2z135z176z2 <= 0
x196x162x2 - 1z196z162z2 <= 0
x196x118x2 - 2z196z118z2 <= 0
x196x41x2 - 1z196z41z2 <= 0
x196x43x2 - 1z196z43z2 <= 0
x196x157x3 - 2z196z157z3 <= 0
x196x151x3 - 2z196z151z3 <= 0
x196x185x3 - 1z196z185z3 <= 0
x196x28x3 - 2z196z28z3 <= 0
x196x87x2 - 2z196z87z2 <= 0
x196x182x3 - 2z196z182z3 <= 0
x196x32x3 - 1z196z32z3 <= 0
x196x8x2 - 2z196z8z2 <= 0
x196x15x2 - 1z196z15z2 <= 0
x196x15x3 - 1z196z15z3 <= 0
x196x44x2 - 2z196z44z2 <= 0
x196x176x2 - 2z196z176z2 <= 0
x75x157x3 - 2z75z157z3 <= 0
x75x151x3 - 2z75z151z3 <= 0
x75x185x3 - 1z75z185z3 <= 0
x75x28x3 - 2z75z28z3 <= 0
x75x182x3 - 2z75z182z3 <= 0
x75x32x3 - 1z75z32z3 <= 0
x75x15x3 - 1z75z15z3 <= 0
x56x162x1 - 1z56z162z1 <= 0
x56x36x1 - 2z56z36z1 <= 0
x56x41x1 - 1z56z41z1 <= 0
x56x43x1 - 1z56z43z1 <= 0
x56x185x1 - 1z56z185z1 <= 0
x56x32x1 - 1z56z32z1 <= 0
x56x0x1 <= 2
x162x36x1 - 2z162z36z1 <= 0
x162x185x1 - 1z162z185z1 <= 0
x162x87x2 - 2z162z87z2 <= 0
x162x32x1 - 1z162z32z1 <= 0
x162x8x2 - 2z162z8z2 <= 0
x162x15x2 - 1z162z15z2 <= 0
x162x44x2 - 2z162z44z2 <= 0
x162x176x2 - 2z162z176z2 <= 0
x162x0x1 <= 1
x162x0x2 <= 1
x118x43x2 - 1z118z43z2 <= 0
x118x87x2 - 2z118z87z2 <= 0
x118x8x2 - 2z118z8z2 <= 0
x118x15x2 - 1z118z15z2 <= 0
x118x44x2 - 2z118z44z2 <= 0
x118x176x2 - 2z118z176z2 <= 0
x118x0x2 <= 2
x36x185x1 - 1z36z185z1 <= 0
x36x32x1 - 1z36z32z1 <= 0
x36x0x1 <= 2
x41x185x1 - 1z41z185z1 <= 0
x41x87x2 - 2z41z87z2 <= 0
x41x32x1 - 1z41z32z1 <= 0
x41x8x2 - 2z41z8z2 <= 0
x41x15x2 - 1z41z15z2 <= 0
x41x44x2 - 2z41z44z2 <= 0
x41x176x2 - 2z41z176z2 <= 0
x41x0x1 <= 1
x41x0x2 <= 1
x43x185x1 - 1z43z185z1 <= 0
x43x87x2 - 2z43z87z2 <= 0
x43x32x1 - 1z43z32z1 <= 0
x43x8x2 - 2z43z8z2 <= 0
x43x15x2 - 1z43z15z2 <= 0
x43x44x2 - 2z43z44z2 <= 0
x43x176x2 - 2z43z176z2 <= 0
x43x0x1 <= 1
x43x0x2 <= 1
x157x185x3 - 1z157z185z3 <= 0
x157x28x3 - 2z157z28z3 <= 0
x157x182x3 - 2z157z182z3 <= 0
x157x32x3 - 1z157z32z3 <= 0
x157x15x3 - 1z157z15z3 <= 0
x157x0x3 <= 2
x151x185x3 - 1z151z185z3 <= 0
x151x28x3 - 2z151z28z3 <= 0
x151x182x3 - 2z151z182z3 <= 0
x151x32x3 - 1z151z32z3 <= 0
x151x15x3 - 1z151z15z3 <= 0
x151x0x3 <= 2
x185x28x3 - 2z185z28z3 <= 0
x185x182x3 - 2z185z182z3 <= 0
x185x32x1 - 1z185z32z1 <= 0
x185x32x3 - 1z185z32z3 <= 0
x185x15x3 - 1z185z15z3 <= 0
x185x0x1 <= 1
x185x0x3 <= 1
x28x182x3 - 2z28z182z3 <= 0
x28x32x3 - 1z28z32z3 <= 0
x28x15x3 - 1z28z15z3 <= 0
x28x0x3 <= 2
x87x8x2 - 2z87z8z2 <= 0
x87x15x2 - 1z87z15z2 <= 0
x87x44x2 - 2z87z44z2 <= 0
x87x176x2 - 2z87z176z2 <= 0
x87x0x2 <= 2
x182x15x3 - 1z182z15z3 <= 0
x182x0x3 <= 2
x32x15x3 - 1z32z15z3 <= 0
x32x0x1 <= 1
x32x0x3 <= 1
x8x0x2 <= 2
x15x0x2 <= 1
x15x0x3 <= 1
x44x0x2 <= 2
x176x0x2 <= 2

Bounds
s88 = 5.456222
s148 = 5.740972
s34 = 5.364254
s26 = 5.796800
s24 = 5.974597
s121 = 5.947036
s135 = 5.870000
s196 = 4.849810
s75 = 4.866370
6.010000 <= s56 <= 7.010000
6.100000 <= s162 <= 7.100000
6.130000 <= s118 <= 7.130000
6.150000 <= s36 <= 7.150000
6.150000 <= s41 <= 7.150000
6.160000 <= s43 <= 7.160000
6.170000 <= s157 <= 7.170000
6.190000 <= s151 <= 7.190000
6.260000 <= s185 <= 7.260000
7.050000 <= s28 <= 8.050000
7.110000 <= s87 <= 8.110000
7.130000 <= s182 <= 8.130000
7.140000 <= s32 <= 8.140000
8.020000 <= s8 <= 9.020000
8.030000 <= s15 <= 9.030000
8.030000 <= s44 <= 9.030000
8.030000 <= s176 <= 9.030000

General
x88x162x1 x88x36x1 x88x41x1 x88x43x1 x88x185x1 x88x32x1 
x148x43x2 x148x157x3 x148x151x3 x148x185x3 x148x28x3 x148x87x2 x148x182x3 x148x32x3 x148x8x2 x148x15x2 x148x15x3 x148x44x2 x148x176x2 
x34x56x1 x34x162x1 x34x162x2 x34x118x2 x34x36x1 x34x41x1 x34x41x2 x34x43x1 x34x43x2 x34x185x1 x34x87x2 x34x32x1 x34x8x2 x34x15x2 x34x44x2 x34x176x2 
x26x185x1 x26x87x2 x26x32x1 x26x8x2 x26x15x2 x26x44x2 x26x176x2 
x24x87x2 x24x32x1 x24x8x2 x24x15x2 x24x44x2 x24x176x2 
x121x28x3 x121x182x3 x121x32x3 x121x15x3 
x135x87x2 x135x32x1 x135x8x2 x135x15x2 x135x44x2 x135x176x2 
x196x162x2 x196x118x2 x196x41x2 x196x43x2 x196x157x3 x196x151x3 x196x185x3 x196x28x3 x196x87x2 x196x182x3 x196x32x3 x196x8x2 x196x15x2 x196x15x3 x196x44x2 x196x176x2 
x75x157x3 x75x151x3 x75x185x3 x75x28x3 x75x182x3 x75x32x3 x75x15x3 
x56x162x1 x56x36x1 x56x41x1 x56x43x1 x56x185x1 x56x32x1 x56x0x1 
x162x36x1 x162x185x1 x162x87x2 x162x32x1 x162x8x2 x162x15x2 x162x44x2 x162x176x2 x162x0x1 x162x0x2 
x118x43x2 x118x87x2 x118x8x2 x118x15x2 x118x44x2 x118x176x2 x118x0x2 
x36x185x1 x36x32x1 x36x0x1 
x41x185x1 x41x87x2 x41x32x1 x41x8x2 x41x15x2 x41x44x2 x41x176x2 x41x0x1 x41x0x2 
x43x185x1 x43x87x2 x43x32x1 x43x8x2 x43x15x2 x43x44x2 x43x176x2 x43x0x1 x43x0x2 
x157x185x3 x157x28x3 x157x182x3 x157x32x3 x157x15x3 x157x0x3 
x151x185x3 x151x28x3 x151x182x3 x151x32x3 x151x15x3 x151x0x3 
x185x28x3 x185x182x3 x185x32x1 x185x32x3 x185x15x3 x185x0x1 x185x0x3 
x28x182x3 x28x32x3 x28x15x3 x28x0x3 
x87x8x2 x87x15x2 x87x44x2 x87x176x2 x87x0x2 
x182x15x3 x182x0x3 
x32x15x3 x32x0x1 x32x0x3 
x8x0x2 
x15x0x2 x15x0x3 
x44x0x2 
x176x0x2 

Binaries
y56 y162 y118 y36 y41 y43 y157 y151 y185 y28 y87 y182 y32 y8 y15 y44 y176 
z88z162z1 z88z36z1 z88z41z1 z88z43z1 z88z185z1 z88z32z1 
z148z43z2 z148z157z3 z148z151z3 z148z185z3 z148z28z3 z148z87z2 z148z182z3 z148z32z3 z148z8z2 z148z15z2 z148z15z3 z148z44z2 z148z176z2 
z34z56z1 z34z162z1 z34z162z2 z34z118z2 z34z36z1 z34z41z1 z34z41z2 z34z43z1 z34z43z2 z34z185z1 z34z87z2 z34z32z1 z34z8z2 z34z15z2 z34z44z2 z34z176z2 
z26z185z1 z26z87z2 z26z32z1 z26z8z2 z26z15z2 z26z44z2 z26z176z2 
z24z87z2 z24z32z1 z24z8z2 z24z15z2 z24z44z2 z24z176z2 
z121z28z3 z121z182z3 z121z32z3 z121z15z3 
z135z87z2 z135z32z1 z135z8z2 z135z15z2 z135z44z2 z135z176z2 
z196z162z2 z196z118z2 z196z41z2 z196z43z2 z196z157z3 z196z151z3 z196z185z3 z196z28z3 z196z87z2 z196z182z3 z196z32z3 z196z8z2 z196z15z2 z196z15z3 z196z44z2 z196z176z2 
z75z157z3 z75z151z3 z75z185z3 z75z28z3 z75z182z3 z75z32z3 z75z15z3 
z56z162z1 z56z36z1 z56z41z1 z56z43z1 z56z185z1 z56z32z1 
z162z36z1 z162z185z1 z162z87z2 z162z32z1 z162z8z2 z162z15z2 z162z44z2 z162z176z2 
z118z43z2 z118z87z2 z118z8z2 z118z15z2 z118z44z2 z118z176z2 
z36z185z1 z36z32z1 
z41z185z1 z41z87z2 z41z32z1 z41z8z2 z41z15z2 z41z44z2 z41z176z2 
z43z185z1 z43z87z2 z43z32z1 z43z8z2 z43z15z2 z43z44z2 z43z176z2 
z157z185z3 z157z28z3 z157z182z3 z157z32z3 z157z15z3 
z151z185z3 z151z28z3 z151z182z3 z151z32z3 z151z15z3 
z185z28z3 z185z182z3 z185z32z1 z185z32z3 z185z15z3 
z28z182z3 z28z32z3 z28z15z3 
z87z8z2 z87z15z2 z87z44z2 z87z176z2 
z182z15z3 
z32z15z3 





End